102190
21,48,5,19,24,31,65,50,4,53,59,68,44,22,82,75,11,16,38,2,30,35,6,61,79,28,8,83,63,39,52,41,78,69,15,25,42,55,23,12,3,43,57,34,49,47,60,81,72,51,56,7,27,33,40,32,74,58,17,77,9,20,67,76,14,70,62,80,26,36,66,71,54,46,45,29,10,1,64,73,13,37,18,21